GLPSOL: GLPK LP/MIP Solver, v4.55
Parameter(s) specified in the command line:
 -m tmp.mod
Reading model section from tmp.mod...
Reading data section from tmp.mod...
155 lines were read
Generating obj...
Generating kirhoff...
Generating init_charge...
Generating batt_size...
Model has been successfully generated
GLPK Simplex Optimizer, v4.55
108 rows, 170 columns, 334 non-zeros
Preprocessing...
81 rows, 150 columns, 304 non-zeros
Scaling...
 A: min|aij| =  1.000e+00  max|aij| =  1.000e+00  ratio =  1.000e+00
Problem data seem to be well scaled
Constructing initial basis...
Size of triangular part is 70
      0: obj =   0.000000000e+00  infeas =  6.800e+01 (11)
*    31: obj =   0.000000000e+00  infeas =  0.000e+00 (7)
OPTIMAL LP SOLUTION FOUND
Time used:   0.0 secs
Memory used: 0.4 Mb (466985 bytes)
#OUTPUT:
0
-2 -11 -11 -5 -6 -2 -2 0 0 -11 0 0 0 0 -11 -6 2 0 0 
0 0 0 0 0 0 0 0 0 0 0 0 0 0 0 0 0 0 0 
0 0 0 0 0 0 0 0 0 0 0 0 0 0 0 0 0 0 0 
0 -14 -12 0 -14 0 0 0 0 0 0 0 -2 0 0 0 0 2 0 
#OUTPUT END
Model has been successfully processed
